InboundTrucks  = 10;
OutboundTrucks = 10;
InboundDoors   = 4;
OutboundDoors  = 4;
ReleaseTime    = [110,108,7,11,10,46,106,21,94,103];
UnloadTime     = [34,18,7,22,15,34,11,25,8,11];
LoadTime       = [14,25,14,9,20,19,13,25,22,19];
TransferTime   = [| 0,0,0,1,12,0,3,0,0,3 | 0,4,0,0,6,0,0,0,0,10 | 0,0,2,0,0,2,0,0,1,0 | 5,0,0,6,0,7,0,0,0,0 | 0,1,0,0,2,0,0,0,0,0 | 0,0,0,0,0,1,0,0,0,0 | 0,0,0,6,11,0,0,0,0,3 | 0,2,0,0,1,0,0,0,0,9 | 8,0,4,0,0,3,0,0,1,0 | 4,0,0,0,0,0,6,0,6,6 |];
